/*********************************************
 * OPL 12.6.0.0 Data
 * Author: Adrian Rodriguez Bazaga, Pau Rodriguez Esmerats
 * Creation Date: 10/12/2017 at 07:27:24
 *********************************************/

maxConsec=3;
maxPresence=8;
maxHours=5;
minHours=2;
hours=12;
demand= [30 37 43 26 42 47 58 42 28 26 23 19  ];
nNurses=120;
